
Gurobi 10.0.3 (mac64[arm], gurobi_cl) logging started Thu Oct 19 13:36:22 2023

Set parameter LogFile to value "gurobi.log"

Gurobi 10.0.3 (mac64[arm], gurobi_cl) logging started Tue Oct 31 16:32:40 2023

Set parameter LogFile to value "gurobi.log"
